interdiction/MCDM/NO_CORR/GEN_FROM_60/16_ITEMS_1000_GEN/K5016W15.KNP.mps
NAME          BLANK   
ROWS
 N  OBJROW
 L  R0000000
COLUMNS
    C0000000  OBJROW     -928.         R0000000  182.        
    C0000001  OBJROW     -833.         R0000000  607.        
    C0000002  OBJROW     -290.         R0000000  972.        
    C0000003  OBJROW     -328.         R0000000  636.        
    C0000004  OBJROW     -270.         R0000000  61.         
    C0000005  OBJROW     -294.         R0000000  785.        
    C0000006  OBJROW     -373.         R0000000  937.        
    C0000007  OBJROW     -682.         R0000000  355.        
    C0000008  OBJROW     -442.         R0000000  428.        
    C0000009  OBJROW     -546.         R0000000  573.        
    C0000010  OBJROW     -44.          R0000000  438.        
    C0000011  OBJROW     -549.         R0000000  233.        
    C0000012  OBJROW     -470.         R0000000  35.         
    C0000013  OBJROW     -6.           R0000000  19.         
    C0000014  OBJROW     -477.         R0000000  480.        
    C0000015  OBJROW     -562.         R0000000  775.        
RHS
    RHS       R0000000  13564.      
BOUNDS
 BV BOUND     C0000000  1.          
 BV BOUND     C0000001  1.          
 BV BOUND     C0000002  1.          
 BV BOUND     C0000003  1.          
 BV BOUND     C0000004  1.          
 BV BOUND     C0000005  1.          
 BV BOUND     C0000006  1.          
 BV BOUND     C0000007  1.          
 BV BOUND     C0000008  1.          
 BV BOUND     C0000009  1.          
 BV BOUND     C0000010  1.          
 BV BOUND     C0000011  1.          
 BV BOUND     C0000012  1.          
 BV BOUND     C0000013  1.          
 BV BOUND     C0000014  1.          
 BV BOUND     C0000015  1.          
ENDATA
