interdiction/MCDM/NO_CORR/GEN_FROM_60/16_ITEMS_1000_GEN/K5016W15.KNP.txt
N 16
M 17
LC 16
LC 17
LC 18
LC 19
LC 20
LC 21
LC 22
LC 23
LC 24
LC 25
LC 26
LC 27
LC 28
LC 29
LC 30
LC 31
LR 1
LR 2
LR 3
LR 4
LR 5
LR 6
LR 7
LR 8
LR 9
LR 10
LR 11
LR 12
LR 13
LR 14
LR 15
LR 16
LR 17
LO -928
LO -833
LO -290
LO -328
LO -270
LO -294
LO -373
LO -682
LO -442
LO -546
LO -44
LO -549
LO -470
LO -6
LO -477
LO -562
OS 1
IC 898
IC 235
IC 374
IC 620
IC 860
IC 459
IC 936
IC 778
IC 979
IC 369
IC 839
IC 13
IC 845
IC 111
IC 828
IC 507
IB 4826
